[2026-03-24T08:36:03.377Z] Pipeline "set_big_5-7_big_5-7_s004_g002" → 2026_03_24_08_36_03_set_big_5-7_big_5-7_s004_g002_max.sol
Set parameter WLSAccessID
Set parameter WLSSecret
Set parameter LicenseID to value 2792458
Set parameter LogFile to value "gurobi.log"
Using license file /root/gurobi.lic
Academic license 2792458 - for non-commercial use only - registered to an___@studenti.unipg.it

Gurobi Optimizer version 13.0.1 build v13.0.1rc0 (linux64 - "Ubuntu 24.04.4 LTS")
Copyright (c) 2026, Gurobi Optimization, LLC

Warning: Duplicate section found (read 'binary') - Is a variable name equal to an LP file format keyword?
Warning: Duplicate section found (read 'binary') - Is a variable name equal to an LP file format keyword?
Warning: Duplicate section found (read 'binary') - Is a variable name equal to an LP file format keyword?
Warning: Duplicate section found (read 'binary') - Is a variable name equal to an LP file format keyword?
Warning: Duplicate section found (read 'binary') - Is a variable name equal to an LP file format keyword?
Warning: Duplicate section found (read 'binary') - Is a variable name equal to an LP file format keyword?
Warning: Duplicate section found (read 'binary') - Is a variable name equal to an LP file format keyword?
Warning: Duplicate section found (read 'binary') - Is a variable name equal to an LP file format keyword?
Warning: Duplicate section found (read 'binary') - Is a variable name equal to an LP file format keyword?
Warning: Duplicate section found (read 'binary') - Is a variable name equal to an LP file format keyword?
Warning: Further warnings of this type will be omitted.
Read LP format model from file /root/bgw/data/uploads/2026_03_24_08_36_03_set_big_5-7_big_5-7_s004_g002_max.lp
Reading time = 0.00 seconds
: 3577 rows, 351 columns, 10859 nonzeros

Using Gurobi shared library /opt/gurobi1301/linux64/lib/libgurobi.so.13.0.1

CPU model: AMD EPYC-Genoa Processor, instruction set [SSE2|AVX|AVX2|AVX512]
Thread count: 16 physical cores, 16 logical processors, using up to 16 threads

Academic license 2792458 - for non-commercial use only - registered to an___@studenti.unipg.it
Optimize a model with 3577 rows, 351 columns and 10859 nonzeros (Max)
Model fingerprint: 0xe023ea10
Model has 43 linear objective coefficients
Variable types: 65 continuous, 286 integer (286 binary)
Coefficient statistics:
  Matrix range     [1e+00, 2e+01]
  Objective range  [1e+00, 1e+00]
  Bounds range     [1e+00, 1e+00]
  RHS range        [1e+00, 2e+01]

Found heuristic solution: objective 43.0000000
Presolve removed 456 rows and 96 columns
Presolve time: 0.01s
Presolved: 3121 rows, 255 columns, 9496 nonzeros
Variable types: 0 continuous, 255 integer (248 binary)
Found heuristic solution: objective 58.0000000

Root relaxation: objective 2.710000e+02, 228 iterations, 0.01 seconds (0.01 work units)

    Nodes    |    Current Node    |     Objective Bounds      |     Work
 Expl Unexpl |  Obj  Depth IntInf | Incumbent    BestBd   Gap | It/Node Time

     0     0  271.00000    0   27   58.00000  271.00000   367%     -    0s
H    0     0                      73.0000000  271.00000   271%     -    0s
H    0     0                     103.0000000  271.00000   163%     -    0s
H    0     0                     119.0000000  271.00000   128%     -    0s
     0     0  271.00000    0   26  119.00000  271.00000   128%     -    0s
     0     0  271.00000    0   26  119.00000  271.00000   128%     -    0s
     0     0  271.00000    0   25  119.00000  271.00000   128%     -    0s
     0     0  271.00000    0   25  119.00000  271.00000   128%     -    0s
H    0     0                     120.0000000  271.00000   126%     -    0s
     0     0  271.00000    0   25  120.00000  271.00000   126%     -    0s
     0     0  271.00000    0   25  120.00000  271.00000   126%     -    0s
     0     0  270.25000    0   25  120.00000  270.25000   125%     -    0s
     0     0  270.00000    0   25  120.00000  270.00000   125%     -    0s
     0     0  270.00000    0   25  120.00000  270.00000   125%     -    0s
     0     0  269.00000    0   25  120.00000  269.00000   124%     -    0s
     0     0  269.00000    0   25  120.00000  269.00000   124%     -    0s
     0     0  269.00000    0   25  120.00000  269.00000   124%     -    0s
     0     0  269.00000    0   25  120.00000  269.00000   124%     -    0s
     0     0  269.00000    0   25  120.00000  269.00000   124%     -    0s
     0     0  269.00000    0   25  120.00000  269.00000   124%     -    0s
     0     0  269.00000    0   25  120.00000  269.00000   124%     -    0s
     0     2  269.00000    0   25  120.00000  269.00000   124%     -    0s

Cutting planes:
  Gomory: 2
  Cover: 42
  MIR: 11
  Inf proof: 91
  Zero half: 4
  Mod-K: 1

Explored 8350 nodes (538519 simplex iterations) in 2.35 seconds (4.41 work units)
Thread count was 16 (of 16 available processors)

Solution count 6: 120 119 103 ... 43

Optimal solution found (tolerance 1.00e-04)
Best objective 1.200000000000e+02, best bound 1.200000000000e+02, gap 0.0000%

Wrote result file '/root/bgw/data/results/2026_03_24_08_36_03_set_big_5-7_big_5-7_s004_g002_max.sol'

